outputs/case_389.model.txt
annual_report_audited = False
semiannual_report_reviewed = False
semiannual_report_audited = False
semiannual_report_submitted = False
own_capital = -11362000000
under_government_takeover = True
risk_capital = 100000000000
annual_report_submitted = False
net_worth = -5000000000
capital_info_reported_semiannual = False
penalty = False
capital_info_reported_exemption = True
capital_level = 4
capital_info_reported_compliance = True
capital_info_reported_required = False
net_worth_ratio = 0
minimum_net_worth_ratio = 0
net_worth_ratio_minimum = 1
minimum_ratio = 0
capital_ratio_minimum = 0
capital_info_reported_annual = False